800 800
700.00 400.00
697.63 437.60
690.57 474.61
678.93 510.44
662.89 544.53
642.71 576.34
618.69 605.36
591.23 631.15
560.75 653.30
527.73 671.45
492.71 685.32
456.21 694.69
418.84 699.41
381.16 699.41
343.79 694.69
307.29 685.32
272.27 671.45
239.25 653.30
208.77 631.15
181.31 605.36
157.29 576.34
137.11 544.53
121.07 510.44
109.43 474.61
102.37 437.60
100.00 400.00
102.37 362.40
109.43 325.39
121.07 289.56
137.11 255.47
157.29 223.66
181.31 194.64
208.77 168.85
239.25 146.70
272.27 128.55
307.29 114.68
343.79 105.31
381.16 100.59
418.84 100.59
456.21 105.31
492.71 114.68
527.73 128.55
560.75 146.70
591.23 168.85
618.69 194.64
642.71 223.66
662.89 255.47
678.93 289.56
690.57 325.39
697.63 362.40
